
******************************************************************************
This program contains Ipopt, a library for large-scale nonlinear optimization.
 Ipopt is released as open source code under the Eclipse Public License (EPL).
         For more information visit http://projects.coin-or.org/Ipopt
******************************************************************************

This is Ipopt version 3.12.6, running with linear solver ma57.

Number of nonzeros in equality constraint Jacobian...:        0
Number of nonzeros in inequality constraint Jacobian.:        4
Number of nonzeros in Lagrangian Hessian.............:        3

Total number of variables............................:        2
                     variables with only lower bounds:        0
                variables with lower and upper bounds:        2
                     variables with only upper bounds:        0
Total number of equality constraints.................:        0
Total number of inequality constraints...............:        2
        inequality constraints with only lower bounds:        2
   inequality constraints with lower and upper bounds:        0
        inequality constraints with only upper bounds:        0

iter    objective    inf_pr   inf_du lg(mu)  ||d||  lg(rg) alpha_du alpha_pr  ls
   0  4.0408040e+00 2.10e+01 2.07e+00  -1.0 0.00e+00    -  0.00e+00 0.00e+00   0
   1  4.0641385e+00 2.09e+01 2.09e+00  -1.0 9.84e+00    -  1.98e-03 1.01e-03h  1
   2  6.9909666e+01 2.50e+00 5.93e+02  -1.0 2.48e+01    -  2.23e-04 1.00e+00H  1
   3  7.2238384e+01 0.00e+00 1.35e+01  -1.0 2.14e+01    -  8.00e-01 1.00e+00h  1
   4  2.3146821e+01 4.68e+00 5.34e+00  -1.0 8.87e+01    -  8.75e-01 6.23e-01f  1
   5  7.1037802e+00 6.48e+00 2.04e+00  -1.0 1.93e+01    -  5.75e-01 1.00e+00f  1
   6  6.6904087e+00 4.42e-01 1.21e+00  -1.0 5.82e+01    -  2.60e-01 1.00e+00h  1
   7  5.7639081e+00 1.86e-01 4.83e-01  -1.0 4.05e+01    -  1.00e+00 1.00e+00h  1
   8  4.8611754e+00 8.37e-01 2.99e-01  -1.0 6.78e+01    -  1.00e+00 1.00e+00h  1
   9  5.0876853e+00 0.00e+00 9.16e-03  -1.0 4.83e+01    -  1.00e+00 1.00e+00h  1
iter    objective    inf_pr   inf_du lg(mu)  ||d||  lg(rg) alpha_du alpha_pr  ls
  10  5.1047467e+00 0.00e+00 1.52e-05  -1.0 2.82e+00    -  1.00e+00 1.00e+00h  1
  11  5.0004586e+00 0.00e+00 2.74e-03  -2.5 9.78e+00    -  1.00e+00 9.89e-01f  1
  12  5.0028349e+00 0.00e+00 3.43e-07  -2.5 6.07e-02    -  1.00e+00 1.00e+00h  1
  13  5.0001477e+00 0.00e+00 1.70e-06  -3.8 2.60e-01    -  1.00e+00 1.00e+00f  1
Reallocating memory for MA57: lfact (77)
  14  5.0000018e+00 0.00e+00 5.30e-09  -5.7 1.43e-02    -  1.00e+00 1.00e+00h  1
  15  5.0000000e+00 0.00e+00 8.07e-13  -8.6 1.79e-04    -  1.00e+00 1.00e+00h  1

Number of Iterations....: 15

                                   (scaled)                 (unscaled)
Objective...............:   5.0000000005046097e+00    5.0000000005046097e+00
Dual infeasibility......:   8.0749700603398957e-13    8.0749700603398957e-13
Constraint violation....:   0.0000000000000000e+00    0.0000000000000000e+00
Complementarity.........:   2.5073577405114220e-09    2.5073577405114220e-09
Overall NLP error.......:   2.5073577405114220e-09    2.5073577405114220e-09


Number of objective function evaluations             = 19
Number of objective gradient evaluations             = 16
Number of equality constraint evaluations            = 0
Number of inequality constraint evaluations          = 19
Number of equality constraint Jacobian evaluations   = 0
Number of inequality constraint Jacobian evaluations = 16
Number of Lagrangian Hessian evaluations             = 15
Total CPU secs in IPOPT (w/o function evaluations)   =      0.010
Total CPU secs in NLP function evaluations           =      0.000

EXIT: Optimal Solution Found.

************************ CUTEst statistics ************************


 Package used            :  IPOPT
 Problem                 :  HS18      
 # variables             =               2
 # constraints           =               2
 # objective functions   =        0.3600000E+02
 # objective gradients   =        0.1700000E+02
 # objective Hessians    =        0.1600000E+02
 # Hessian-vector prdct  =        0.0000000E+00
 # constraints functions =        0.3700000E+02
 # constraints gradients =        0.1800000E+02
 # constraints Hessians  =        0.1600000E+02
 Exit code               =               0
 Final f                 =   0.5000000E+01
 Set up time             =            0.00 seconds
 Solve time              =            0.02 seconds


******************************************************************

System Time =       0.0060000001 s.
